TCS_Benchmarks/redos_fix/snort1_output_distinct_1857_1856_16_0.txt
((.|\n|\r)*)([\n\r\s]*)
((.|\n|\r)*)([sS][cC][hH][eE][mM][aA]_[nN][aA][mM][eE][\n\r\s]*=>)([\n\r\s]*)